400
[42,43,58,59,60,64,73,74,75,83,88,89,92,94,95,102,103,106,110,111,115,120,121,124,126,127,129,130,132,138,140,141,142,143,146,152,154,156,160,162,166,173,174,182,191,195,198,204,208,210,211,212,214,218,220,222,224,228,233,234,235,241,244,245,247,248,249,253,254,256,257,265,267,268,270,274,276,278,279]
[1,2,1,1,2,1,1,1,1,1,1,1,2,2,1,1,1,1,1,1,1,1,2,3,1,1,1,1,1,1,2,2,1,3,1,2,2,1,1,1,1,1,1,1,1,1,1,1,1,3,1,1,1,1,2,1,1,1,1,1,1,1,1,1,1,1,3,1,1,1,1,2,1,1,1,1,1,2,2]
